(set-logic ALL)
(set-option :smt.string_solver z3str3)
(set-option :produce-models true)
(define-fun-rec str.toLower ((x String)) String
  (ite (= x "")
      ""
      (let ((Head (str.at x 0)))
        (str.++ 
          (ite (and (<= 65 (str.to_code Head)) 
                     (<= (str.to_code Head) 90))
               (str.from_code (+ (str.to_code Head) 32))
               Head)
          (str.toLower (str.substr x 1 (- (str.len x) 1)))))))
(declare-fun sym205 () String)
(assert (<= (str.len sym205) 1))
(declare-fun sym547 () String)
(assert (<= (str.len sym547) 1))
(declare-fun sym813 () String)
(assert (<= (str.len sym813) 1))
(declare-fun sym3836 () String)
(assert (<= (str.len sym3836) 1))
(declare-fun sym1910 () String)
(assert (<= (str.len sym1910) 1))
(declare-fun sym2128 () String)
(assert (<= (str.len sym2128) 1))
(declare-fun sym2986 () String)
(assert (<= (str.len sym2986) 1))
(declare-fun sym2337 () String)
(assert (<= (str.len sym2337) 1))
(declare-fun sym1479 () String)
(assert (<= (str.len sym1479) 1))
(declare-fun sym3624 () String)
(assert (<= (str.len sym3624) 1))
(declare-fun sym3414 () String)
(assert (<= (str.len sym3414) 1))
(declare-fun sym1695 () String)
(assert (<= (str.len sym1695) 1))
(declare-fun sym3202 () String)
(assert (<= (str.len sym3202) 1))
(declare-fun sym4047 () String)
(assert (<= (str.len sym4047) 1))
(declare-fun sym2552 () String)
(assert (<= (str.len sym2552) 1))
(declare-fun sym2770 () String)
(assert (<= (str.len sym2770) 1))
(declare-fun sym4352 () String)
(assert (<= (str.len sym4352) 1))
(declare-fun sym1040 () String)
(assert (<= (str.len sym1040) 1))
(declare-fun sym4253 () String)
(assert (<= (str.len sym4253) 1))
(declare-fun sym1261 () String)
(assert (<= (str.len sym1261) 1))
(declare-fun sym161 () String)
(assert (<= (str.len sym161) 1))
(define-fun Alphabet () RegLan 
	(re.* (re.union (str.to_re "A") (str.to_re "B") (str.to_re "C") (str.to_re "D") (str.to_re "E") (str.to_re "F") (str.to_re "G") (str.to_re "H") (str.to_re "I") (str.to_re "J") (str.to_re "K") (str.to_re "L") (str.to_re "M") (str.to_re "N") (str.to_re "O") (str.to_re "P") (str.to_re "Q") (str.to_re "R") (str.to_re "S") (str.to_re "T") (str.to_re "U") (str.to_re "V") (str.to_re "W") (str.to_re "X") (str.to_re "Y") (str.to_re "Z") (str.to_re "a") (str.to_re "b") (str.to_re "c") (str.to_re "d") (str.to_re "e") (str.to_re "f") (str.to_re "g") (str.to_re "h") (str.to_re "i") (str.to_re "j") (str.to_re "k") (str.to_re "l") (str.to_re "m") (str.to_re "n") (str.to_re "o") (str.to_re "p") (str.to_re "q") (str.to_re "r") (str.to_re "s") (str.to_re "t") (str.to_re "u") (str.to_re "v") (str.to_re "w") (str.to_re "x") (str.to_re "y") (str.to_re "z") ))
)

(assert (str.in_re sym161 Alphabet))
(assert (str.in_re sym1261 Alphabet))
(assert (str.in_re sym4253 Alphabet))
(assert (str.in_re sym1040 Alphabet))
(assert (str.in_re sym4352 Alphabet))
(assert (str.in_re sym2770 Alphabet))
(assert (str.in_re sym2552 Alphabet))
(assert (str.in_re sym4047 Alphabet))
(assert (str.in_re sym3202 Alphabet))
(assert (str.in_re sym1695 Alphabet))
(assert (str.in_re sym3414 Alphabet))
(assert (str.in_re sym3624 Alphabet))
(assert (str.in_re sym1479 Alphabet))
(assert (str.in_re sym2337 Alphabet))
(assert (str.in_re sym2986 Alphabet))
(assert (str.in_re sym2128 Alphabet))
(assert (str.in_re sym1910 Alphabet))
(assert (str.in_re sym3836 Alphabet))
(assert (str.in_re sym813 Alphabet))
(assert (str.in_re sym547 Alphabet))
(assert (str.in_re sym205 Alphabet))(assert (<= 1 (str.len sym1261 )))
(assert (<= 1 (str.len sym1695 )))
(assert (<= 1 (str.len sym1040 )))
(assert (<= 1 (str.len sym4047 )))
(assert (<= 1 (str.len sym3624 )))
(assert (<= 1 (str.len sym3414 )))
(assert (<= 1 (str.len sym1910 )))
(assert (<= 1 (str.len sym3836 )))
(assert (<= 1 (str.len sym4352 )))
(assert (<= 1 (str.len sym1479 )))
(assert (<= 1 (str.len sym547 )))
(assert (<= 1 (str.len sym4253 )))
(assert (<= 1 (str.len sym205 )))
(assert (<= 1 (str.len sym813 )))
(assert (<= 1 (str.len sym2552 )))
(assert (<= 1 (str.len sym2770 )))
(assert (<= 1 (str.len sym3202 )))
(assert (<= 1 (str.len sym2337 )))
(assert (<= 1 (str.len sym2128 )))
(assert (<= 1 (str.len sym2986 )))

(assert (not (= (str.toLower (str.substr sym1695  0 1))"p" )))
(assert (= (str.toLower (str.substr sym4047  0 1))"l" ))
(assert (= "y" "y" ))
(assert (not (= "" sym4352 )))
(assert (not (= "" sym2552 )))
(assert (not (= (str.toLower (str.substr sym1695  0 1))"k" )))
(assert (not (= "" sym3624 )))
(assert (not (= (str.toLower (str.substr sym4047  0 1))"r" )))
(assert (not (= (str.toLower (str.substr sym3202  0 1))"q" )))
(assert (= (str.toLower (str.substr sym3414  0 1))"g" ))
(assert (not (= (str.toLower (str.substr sym2552  0 1))"q" )))
(assert (not (= (str.toLower (str.substr sym3414  0 1))"q" )))
(assert (= (str.toLower (str.substr sym2770  0 1))"g" ))
(assert (= (str.toLower (str.substr sym1261  0 1))"p" ))
(assert (not (= "" (str.toLower (str.substr sym4352  0 1)))))
(assert (not (= (str.toLower (str.substr sym3836  0 1))"k" )))
(assert (not (= "y" "n" )))
(assert (not (= (str.toLower (str.substr sym1695  0 1))"g" )))
(assert (not (= (str.toLower (str.substr sym2128  0 1))"q" )))
(assert (not (= (str.toLower (str.substr sym1040  0 1))"r" )))
(assert (not (= "" sym1261 )))
(assert (not (= (str.toLower (str.substr sym2986  0 1))"q" )))
(assert (= (str.toLower (str.substr sym2337  0 1))"h" ))
(assert (not (= "" sym3836 )))
(assert (not (= (str.toLower (str.substr sym2770  0 1))"k" )))
(assert (not (= (str.toLower (str.substr sym2986  0 1))"r" )))
(assert (not (= "" "y" )))
(assert (not (= "" sym2128 )))
(assert (not (= (str.toLower (str.substr sym3836  0 1))"p" )))
(assert (not (= (str.toLower (str.substr sym813  0 1))"q" )))
(assert (not (= "" "q" )))
(assert (= "" "" ))
(assert (not (= "" sym2986 )))
(assert (not (= (str.toLower (str.substr sym2337  0 1))"p" )))
(assert (= (str.toLower (str.substr sym1695  0 1))"h" ))
(assert (not (= (str.toLower (str.substr sym1040  0 1))"q" )))
(assert (not (= (str.toLower (str.substr sym2337  0 1))"l" )))
(assert (not (= (str.toLower (str.substr sym1040  0 1))"g" )))
(assert (not (= (str.toLower (str.substr sym2128  0 1))"k" )))
(assert (= (str.toLower (str.substr sym2128  0 1))"g" ))
(assert (not (= (str.toLower (str.substr sym3414  0 1))"p" )))
(assert (not (= (str.toLower (str.substr sym1040  0 1))"l" )))
(assert (not (= "" sym2770 )))
(assert (not (= "" sym1910 )))
(assert (not (= "" "y" )))
(assert (not (= (str.toLower (str.substr sym4047  0 1))"q" )))
(assert (= (str.toLower (str.substr sym1040  0 1))"h" ))
(assert (not (= "" (str.toLower (str.substr sym205  0 1)))))
(assert (= (str.toLower (str.substr sym813  0 1))"g" ))
(assert (not (= (str.toLower (str.substr sym4253  0 1))"q" )))
(assert (not (= (str.toLower (str.substr sym2770  0 1))"q" )))
(assert (not (= (str.toLower (str.substr sym2986  0 1))"g" )))
(assert (not (= (str.toLower (str.substr sym4047  0 1))"k" )))
(assert (not (= (str.toLower (str.substr sym2986  0 1))"k" )))
(assert (not (= (str.toLower (str.substr sym1261  0 1))"q" )))
(assert (not (= (str.toLower (str.substr sym2986  0 1))"l" )))
(assert (= (str.toLower (str.substr sym4253  0 1))"p" ))
(assert (not (= "" sym547 )))
(assert (= (str.toLower (str.substr sym3836  0 1))"g" ))
(assert (not (= "" sym161 )))
(assert (not (= (str.toLower (str.substr sym3414  0 1))"k" )))
(assert (not (= "" sym1695 )))
(assert (not (= "" "n" )))
(assert (not (= "" sym2337 )))
(assert (= (str.toLower (str.substr sym3202  0 1))"p" ))
(assert (not (= (str.toLower (str.substr sym3836  0 1))"q" )))
(assert (= (str.toLower (str.substr sym547  0 1))"p" ))
(assert (not (= (str.toLower (str.substr sym1695  0 1))"r" )))
(assert (not (= (str.toLower (str.substr sym1479  0 1))"k" )))
(assert (not (= (str.toLower (str.substr sym4352  0 1))"y" )))
(assert (not (= (str.toLower (str.substr sym2337  0 1))"q" )))
(assert (not (= (str.toLower (str.substr sym813  0 1))"k" )))
(assert (not (= (str.toLower (str.substr sym1479  0 1))"q" )))
(assert (not (= (str.toLower (str.substr sym2986  0 1))"p" )))
(assert (= (str.toLower (str.substr sym3624  0 1))"p" ))
(assert (not (= (str.toLower (str.substr sym2128  0 1))"p" )))
(assert (= (str.toLower (str.substr sym2552  0 1))"p" ))
(assert (= (str.toLower (str.substr sym205  0 1))"y" ))
(assert (not (= (str.toLower (str.substr sym1479  0 1))"p" )))
(assert (not (= (str.toLower (str.substr sym4047  0 1))"p" )))
(assert (not (= (str.toLower (str.substr sym547  0 1))"q" )))
(assert (not (= "" sym1479 )))
(assert (not (= (str.toLower (str.substr sym2337  0 1))"k" )))
(assert (not (= (str.toLower (str.substr sym2337  0 1))"r" )))
(assert (not (= (str.toLower (str.substr sym1695  0 1))"l" )))
(assert (not (= (str.toLower (str.substr sym4047  0 1))"g" )))
(assert (= (str.toLower (str.substr sym1479  0 1))"g" ))
(assert (not (= (str.toLower (str.substr sym1910  0 1))"q" )))
(assert (not (= (str.toLower (str.substr sym813  0 1))"p" )))
(assert (not (= "" sym205 )))
(assert (not (= "" sym3202 )))
(assert (not (= (str.toLower (str.substr sym1040  0 1))"k" )))
(assert (= (str.toLower (str.substr sym2986  0 1))"h" ))
(assert (not (= "n" "y" )))
(assert (not (= "" sym1040 )))
(assert (not (= (str.toLower (str.substr sym1695  0 1))"q" )))
(assert (not (= "" sym4253 )))
(assert (not (= "" sym3414 )))
(assert (not (= (str.toLower (str.substr sym2770  0 1))"p" )))
(assert (not (= (str.toLower (str.substr sym3624  0 1))"q" )))
(assert (not (= "" sym813 )))
(assert (not (= "" sym4047 )))
(assert (not (= (str.toLower (str.substr sym2337  0 1))"g" )))
(assert (= (str.toLower (str.substr sym1910  0 1))"p" ))
(assert (not (= (str.toLower (str.substr sym1040  0 1))"p" )))
(check-sat)
(get-model)
(exit)
